GLPSOL--GLPK LP/MIP Solver 5.0
Parameter(s) specified in the command line:
 --lp ../modeles/3_364.lp --log 3_364.log
Reading problem data from '../modeles/3_364.lp'...
1105 rows, 2190 columns, 7653 non-zeros
1092 integer variables, all of which are binary
3304 lines were read
GLPK Integer Optimizer 5.0
1105 rows, 2190 columns, 7653 non-zeros
1092 integer variables, all of which are binary
Preprocessing...
1086 constraint coefficient(s) were reduced
1105 rows, 2187 columns, 7650 non-zeros
1092 integer variables, all of which are binary
Scaling...
 A: min|aij| =  1.208e-04  max|aij| =  4.000e+00  ratio =  3.312e+04
GM: min|aij| =  7.412e-02  max|aij| =  1.349e+01  ratio =  1.820e+02
EQ: min|aij| =  5.495e-03  max|aij| =  1.000e+00  ratio =  1.820e+02
2N: min|aij| =  3.864e-03  max|aij| =  1.765e+00  ratio =  4.567e+02
Constructing initial basis...
Size of triangular part is 1105
Solving LP relaxation...
GLPK Simplex Optimizer 5.0
1105 rows, 2187 columns, 7650 non-zeros
      0: obj =   6.000000000e+00 inf =   1.450e+01 (7)
     68: obj =   4.542517700e-01 inf =   0.000e+00 (0)
*   231: obj =  -1.731972789e+00 inf =   1.009e-16 (0)
OPTIMAL LP SOLUTION FOUND
Integer optimization begins...
Long-step dual simplex will be used
+   231: mip =     not found yet >=              -inf        (1; 0)
+   649: >>>>>  -1.731972789e+00 >=  -1.731972789e+00 < 0.1% (416; 0)
+   649: mip =  -1.731972789e+00 >=     tree is empty   0.0% (0; 831)
INTEGER OPTIMAL SOLUTION FOUND
Time used:   0.6 secs
Memory used: 3.3 Mb (3411065 bytes)
